
Gurobi 9.5.0 (linux64) logging started Wed Nov  8 21:26:53 2023

Set parameter LogFile to value "/lustre1/scratch/348/vsc34888/JointResearch/05.Models/06.Benchmarking/G.Representative_days_based_on_Line_Benefit_NN_OC_fy_2/3-bus_ByStages_nc100/openStarNet_3-bus_ByStages_nc100.log"
Set parameter Method to value 2
Set parameter MIPFocus to value 1
Set parameter Presolve to value 2
Set parameter RINS to value 100
Set parameter MIPGap to value 0.01
Set parameter Threads to value 36
Set parameter TimeLimit to value 604800
Set parameter IterationLimit to value 760000000
Gurobi Optimizer version 9.5.0 build v9.5.0rc5 (linux64)
Thread count: 36 physical cores, 36 logical processors, using up to 36 threads
Optimize a model with 6603 rows, 2983 columns and 19024 nonzeros
Model fingerprint: 0xda0014d0
Variable types: 2974 continuous, 9 integer (9 binary)
Coefficient statistics:
  Matrix range     [8e-03, 8e+02]
  Objective range  [1e+00, 1e+00]
  Bounds range     [8e-06, 2e+00]
  RHS range        [8e-06, 1e+00]
Presolve removed 2403 rows and 704 columns
Presolve time: 0.03s
Presolved: 4200 rows, 2279 columns, 14870 nonzeros
Variable types: 2270 continuous, 9 integer (9 binary)
Found heuristic solution: objective 73.2505839
Root relaxation presolved: 4200 rows, 2279 columns, 14870 nonzeros

Root barrier log...

Ordering time: 0.00s

Barrier statistics:
 Dense cols : 9
 AA' NZ     : 3.720e+04
 Factor NZ  : 8.574e+04 (roughly 3 MB of memory)
 Factor Ops : 1.922e+06 (less than 1 second per iteration)
 Threads    : 36

                  Objective                Residual
Iter       Primal          Dual         Primal    Dual     Compl     Time
   0   3.68887200e+05 -1.55710587e+08  1.52e+01 1.78e+02  2.92e+04     0s
   1   2.40221678e+04 -3.12600389e+06  1.02e+00 1.50e-09  9.53e+02     0s
   2   2.66495646e+03 -1.25610238e+06  3.62e-02 4.74e-09  1.66e+02     0s
   3   1.84520449e+03 -1.90538391e+04  5.03e-04 4.87e-10  2.57e+00     0s
   4   3.44522739e+02 -4.89138287e+03  1.21e-05 1.14e-10  6.42e-01     0s
   5   1.90835494e+02 -1.89693599e+03  2.85e-06 4.24e-11  2.56e-01     0s
   6   1.38897759e+02 -7.24463156e+02  1.28e-06 1.54e-11  1.06e-01     0s
   7   9.94123523e+01 -1.53408248e+02  4.75e-07 3.69e-12  3.10e-02     0s
   8   7.73774729e+01  2.12184615e+01  8.56e-08 9.09e-13  6.88e-03     0s
   9   6.64076874e+01  5.60068826e+01  5.02e-09 9.09e-13  1.27e-03     0s
  10   6.49559018e+01  6.11999450e+01  2.60e-09 9.09e-13  4.60e-04     0s
  11   6.47368516e+01  6.21144704e+01  2.06e-09 9.09e-13  3.21e-04     0s
  12   6.45588871e+01  6.24518761e+01  1.33e-09 9.09e-13  2.58e-04     0s
  13   6.42854418e+01  6.26235819e+01  8.21e-10 9.09e-13  2.04e-04     0s
  14   6.41506907e+01  6.32314344e+01  1.18e-09 9.09e-13  1.13e-04     0s
  15   6.41050180e+01  6.33095946e+01  9.45e-10 9.09e-13  9.75e-05     0s
  16   6.39881276e+01  6.34678643e+01  2.59e-10 4.55e-13  6.38e-05     0s
  17   6.39438710e+01  6.36646945e+01  1.03e-09 1.82e-12  3.42e-05     0s
  18   6.39315971e+01  6.36663627e+01  6.62e-10 9.09e-13  3.25e-05     0s
  19   6.39155317e+01  6.37099847e+01  4.33e-10 1.82e-12  2.52e-05     0s
  20   6.39117081e+01  6.37975535e+01  2.84e-10 9.09e-13  1.40e-05     0s
  21   6.39096634e+01  6.38846076e+01  2.15e-10 9.09e-13  3.07e-06     0s
  22   6.39054318e+01  6.39034045e+01  6.12e-11 9.09e-13  2.49e-07     0s
  23   6.39046503e+01  6.39035793e+01  4.69e-11 9.09e-13  1.31e-07     0s
  24   6.39036199e+01  6.39036188e+01  1.75e-10 9.09e-13  1.33e-10     0s
  25   6.39036189e+01  6.39036189e+01  1.71e-11 9.09e-13  1.33e-13     0s

Barrier solved model in 25 iterations and 0.20 seconds (0.09 work units)
Optimal objective 6.39036189e+01


Root relaxation: objective 6.390362e+01, 405 iterations, 0.14 seconds (0.06 work units)

    Nodes    |    Current Node    |     Objective Bounds      |     Work
 Expl Unexpl |  Obj  Depth IntInf | Incumbent    BestBd   Gap | It/Node Time

     0     0   63.90362    0    3   73.25058   63.90362  12.8%     -    0s
H    0     0                      64.2933782   63.90362  0.61%     -    0s
     0     0   63.90362    0    2   64.29338   63.90362  0.61%     -    0s

Cutting planes:
  MIR: 94

Explored 1 nodes (859 simplex iterations) in 0.28 seconds (0.13 work units)
Thread count was 36 (of 36 available processors)

Solution count 2: 64.2934 73.2506 

Optimal solution found (tolerance 1.00e-02)
Best objective 6.429337824249e+01, best bound 6.390361889047e+01, gap 0.6062%

Gurobi 9.5.0 (linux64) logging started Wed Nov  8 21:26:55 2023

Set parameter LogFile to value "/lustre1/scratch/348/vsc34888/JointResearch/05.Models/06.Benchmarking/G.Representative_days_based_on_Line_Benefit_NN_OC_fy_2/3-bus_ByStages_nc100/openStarNet_3-bus_ByStages_nc100.log"
Set parameter Method to value 2
Set parameter MIPFocus to value 1
Set parameter Presolve to value 2
Set parameter RINS to value 100
Set parameter MIPGap to value 0.01
Set parameter Threads to value 36
Set parameter TimeLimit to value 604800
Set parameter IterationLimit to value 760000000
No parameters matching 'relax_integrality' found
Gurobi Optimizer version 9.5.0 build v9.5.0rc5 (linux64)
Thread count: 36 physical cores, 36 logical processors, using up to 36 threads
Optimize a model with 6603 rows, 2974 columns and 15415 nonzeros
Model fingerprint: 0x0fc81706
Coefficient statistics:
  Matrix range     [8e-03, 8e+02]
  Objective range  [1e+00, 1e+00]
  Bounds range     [8e-06, 2e+00]
  RHS range        [8e-06, 2e+00]
Presolve removed 5903 rows and 1604 columns
Presolve time: 0.01s
Presolved: 700 rows, 1370 columns, 2670 nonzeros

Ordering time: 0.00s

Barrier statistics:
 AA' NZ     : 1.700e+03
 Factor NZ  : 2.800e+03 (roughly 1 MB of memory)
 Factor Ops : 1.400e+04 (less than 1 second per iteration)
 Threads    : 1

                  Objective                Residual
Iter       Primal          Dual         Primal    Dual     Compl     Time
   0   7.34803704e+05 -1.56644127e+08  3.47e+01 5.67e+02  8.61e+04     0s
   1   4.09898046e+04 -2.32515344e+06  2.36e+00 4.75e-12  2.34e+03     0s
   2   2.62257002e+03 -4.02302188e+05  2.87e-02 1.09e-11  1.62e+02     0s
   3   1.63626220e+03 -6.50941800e+03  2.33e-04 2.68e-12  2.98e+00     0s
   4   4.71094414e+02 -2.68814675e+03  2.83e-05 7.55e-12  1.15e+00     0s
   5   2.28503859e+02 -9.69251134e+02  6.77e-06 2.09e-12  4.37e-01     0s
   6   1.52560661e+02 -2.35734684e+02  2.09e-06 1.32e-12  1.42e-01     0s
   7   1.11829995e+02 -3.81328841e+01  7.63e-07 8.69e-13  5.47e-02     0s
   8   7.54471875e+01  2.87206397e+01  1.22e-07 9.09e-13  1.71e-02     0s
   9   6.66544712e+01  5.91268167e+01  1.52e-08 1.82e-12  2.75e-03     0s
  10   6.44081681e+01  6.36946332e+01  1.55e-10 9.09e-13  2.60e-04     0s
  11   6.43162239e+01  6.41171794e+01  8.29e-11 9.09e-13  7.26e-05     0s
  12   6.42937302e+01  6.42615905e+01  4.86e-11 9.09e-13  1.17e-05     0s
  13   6.42934194e+01  6.42897061e+01  7.48e-11 1.36e-12  1.36e-06     0s
  14   6.42933809e+01  6.42933660e+01  6.07e-11 9.09e-13  5.45e-09     0s
  15   6.42933782e+01  6.42933782e+01  2.83e-11 9.09e-13  5.45e-12     0s

Barrier solved model in 15 iterations and 0.01 seconds (0.01 work units)
Optimal objective 6.42933782e+01

Crossover log...

       0 DPushes remaining with DInf 0.0000000e+00                 0s

     100 PPushes remaining with PInf 0.0000000e+00                 0s
       0 PPushes remaining with PInf 0.0000000e+00                 0s

  Push phase complete: Pinf 0.0000000e+00, Dinf 1.1923795e-13      0s

Iteration    Objective       Primal Inf.    Dual Inf.      Time
     103    6.4293378e+01   0.000000e+00   0.000000e+00      0s

Solved in 103 iterations and 0.01 seconds (0.01 work units)
Optimal objective  6.429337824e+01
